NAME : mini-n20-k5
COMMENT : Instância média CVRP para teste rápido >>CRIADA PELOS ALUNOS<<
TYPE : CVRP
DIMENSION : 20
EDGE_WEIGHT_TYPE : EUC_2D
CAPACITY : 100
NODE_COORD_SECTION
1 40 50
2 45 55
3 50 60
4 55 65
5 60 70
6 65 68
7 70 66
8 75 63
9 80 60
10 82 55
11 78 50
12 72 45
13 66 42
14 60 40
15 55 38
16 50 36
17 45 35
18 42 38
19 38 42
20 35 47
DEMAND_SECTION
1 0
2 12
3 10
4 14
5 20
6 18
7 16
8 12
9 15
10 10
11 8
12 14
13 18
14 12
15 10
16 15
17 6
18 14
19 9
20 12
DEPOT_SECTION
1
-1
EOF
